20.41 0.17 4.08 23.61 0.22 3.62 25.05 0.29 3.23 26.88 0.16 4.54 14.39 0.14 4.49
13.33 0.27 3.8 14.05 0.22 3.18 25.7 0.22 2.15 17.83 0.13 4.93 14.74 0.27 4.25
24.84 0.28 4.9 28.89 0.11 2.46 11.24 0.19 2.3 13.61 0.28 2.67 28.73 0.26 4.71
